CMD:
./solvers/bin/cadical --plain --no-reduce -t 1600 ./data/cnfs//picorv32_mutAX_nomem-p5/picorv32_mutAX_nomem-p5.38.cnf

c --- [ banner ] -------------------------------------------------------------
c 
c CaDiCaL SAT Solver
c Copyright (c) 2016-2024
c A. Biere, M. Fleury, N. Froleyks, K. Fazekas, F. Pollitt, T. Faller
c JKU Linz, University of Freiburg, TU Wien
c 
c Version 2.1.3 5296d3d2a9bf48c154ab2acb5e44625776d821bf
c g++ (Gentoo 12.3.1_p20230526 p2) 12.3.1 20230526 -Wall -Wextra -O3 -DNDEBUG
c Sat Aug 9 07:26:21 PDT 2025 Linux cedar2.int.cedar.computecanada.ca 5.14.0-362.24.2.el9_3.x86_64 x86_64
c 
c --- [ limit ] --------------------------------------------------------------
c 
c setting time limit to 1600 seconds real time (due to '-t 1600')
c 
c --- [ parsing input ] ------------------------------------------------------
c 
c reading DIMACS file from './data/cnfs//picorv32_mutAX_nomem-p5/picorv32_mutAX_nomem-p5.38.cnf'
c opening file to read './data/cnfs//picorv32_mutAX_nomem-p5/picorv32_mutAX_nomem-p5.38.cnf'
c found 'p cnf 2141654 6329097' header
c parsed 6329097 clauses in 1.10 seconds process time
c 
c --- [ options ] ------------------------------------------------------------
c 
c   --compact=false                (different from default 'true')
c   --decompose=false              (different from default 'true')
c   --deduplicate=false            (different from default 'true')
c   --elim=false                   (different from default 'true')
c   --probe=false                  (different from default 'true')
c   --reduce=false                 (different from default 'true')
c   --subsume=false                (different from default 'true')
c   --ternary=false                (different from default 'true')
c   --transred=false               (different from default 'true')
c   --vivify=false                 (different from default 'true')
c 
c --- [ solving ] ------------------------------------------------------------
c 
c time measured in process time since initialization
c 
c  seconds   reductions  redundant   irredundant
c          MB    restarts       trail         variables
c           level   conflicts       glue            remaining
c 
c *  1.10 967  0 0   0    0    0  0% 0 6090299 1976183 92%
c {  1.38 986  0 0   0    0    0  0% 0 6090299 1976183 92%
c i  1.43 987 490 0   0   29   27 10% 1 6090299 1962742 92%
c i  1.50 987 453 0   1   50   46 11% 2 6090299 1948253 91%
c i  1.50 987 444 0   1   51   46 11% 2 6090299 1934765 90%
c i  1.51 987 337 0   1   69   60 11% 2 6090299 1934735 90%
c i  1.51 987 332 0   1   70   60 11% 2 6090299 1934722 90%
c i  1.56 988 233 0   7  101   87 11% 2 6090299 1934707 90%
c i  1.74 990 203 0  25  300  281 13% 4 6090299 1934706 90%
c i  1.88 991 149 0  29  521  486 16% 3 6090299 1934705 90%
c i  1.89 991 144 0  29  553  512 16% 3 6090299 1934700 90%
c i  1.92 991 142 0  29  565  519 16% 3 6090299 1934639 90%
c i  2.05 992 117 0  36  752  681 15% 3 6090299 1934489 90%
c i  2.08 992 117 0  36  755  682 15% 3 6090299 1934341 90%
c }  2.54 993 129 0  52 1001  899 17% 3 6090299 1934337 90%
c [  2.54 993  0 0  52 1001  899  0% 0 6090299 1934337 90%
c O  2.99 994 29177 0  52 1002  900 94% 2 6090299 1934337 90%
c i  4.83 996 27049 0  52 1770 1617 91% 7 6090299 1934271 90%
c i  9.34 1001 19200 0  53 2773 2480 73% 8 6090299 1919827 90%
c ] 10.63 1002 17150 0  53 3002 2669 68% 16 6090299 1919820 90%
c 
c  seconds     reductions  redundant   irredundant
c          MB      restarts       trail         variables
c             level   conflicts       glue            remaining
c 
c { 10.63 1002 129 0  53 3002 2669 17% 3 6090299 1919820 90%
c F 10.64 1002 129 0  53 3003 2670 17% 3 6090299 1919757 90%
c i 10.75 1002 117 0  72 3159 2805 17% 3 6090299 1919756 90%
c i 10.79 1002 115 0  78 3272 2910 16% 3 6090299 1919755 90%
c i 10.90 1002 108 0  91 3441 3063 16% 3 6090299 1919754 90%
c i 10.91 1002 105 0  91 3498 3104 16% 3 6090299 1919753 90%
c i 10.92 1002 101 0  91 3584 3184 16% 3 6090299 1919752 90%
c i 10.92 1002 101 0  91 3586 3184 16% 3 6090299 1919751 90%
c i 10.92 1002 100 0  91 3597 3194 16% 3 6090299 1919750 90%
c i 10.94 1002 99 0  91 3615 3208 16% 3 6090299 1919749 90%
c i 10.94 1002 98 0  91 3647 3236 15% 3 6090299 1919748 90%
c i 10.95 1002 96 0  91 3671 3257 15% 3 6090299 1919747 90%
c i 10.95 1002 96 0  91 3678 3262 15% 3 6090299 1919746 90%
c i 10.96 1002 91 0  91 3813 3386 15% 3 6090299 1919745 90%
c i 11.05 1002 84 0  94 4015 3577 15% 3 6090299 1919739 90%
c i 11.31 1003 84 0  95 4062 3618 15% 3 6090299 1919688 90%
c i 11.41 1004 84 0 102 4103 3657 15% 3 6090299 1919687 90%
c i 11.42 1004 84 0 102 4104 3657 15% 3 6090299 1919677 90%
c i 11.57 1004 81 0 104 4202 3742 15% 3 6090299 1919676 90%
c i 11.62 1004 80 0 104 4261 3789 15% 3 6090299 1919620 90%
c 
c  seconds    reductions  redundant   irredundant
c          MB     restarts       trail         variables
c            level   conflicts       glue            remaining
c 
c i 11.63 1004 80 0 104 4262 3789 15% 3 6090299 1919569 90%
c i 11.64 1004 80 0 104 4264 3790 15% 3 6090299 1919545 90%
c i 11.66 1004 80 0 104 4274 3797 15% 3 6090299 1919502 90%
c i 11.76 1004 78 0 106 4357 3867 15% 3 6090299 1919500 90%
... skipped 238974 lines ...
v -2141240 -2141241 2141242 -2141243 -2141244 2141245 -2141246 -2141247
v 2141248 2141249 -2141250 -2141251 2141252 -2141253 -2141254 2141255 -2141256
v -2141257 2141258 -2141259 2141260 2141261 -2141262 -2141263 2141264 -2141265
v -2141266 2141267 -2141268 -2141269 2141270 -2141271 2141272 2141273 -2141274
v -2141275 2141276 -2141277 -2141278 2141279 -2141280 -2141281 2141282
v -2141283 -2141284 2141285 -2141286 -2141287 2141288 -2141289 -2141290
v 2141291 -2141292 -2141293 2141294 -2141295 2141296 2141297 -2141298 -2141299
v 2141300 -2141301 -2141302 2141303 -2141304 -2141305 2141306 -2141307
v -2141308 2141309 -2141310 -2141311 2141312 -2141313 -2141314 2141315
v -2141316 -2141317 2141318 -2141319 2141320 2141321 -2141322 -2141323 2141324
v -2141325 -2141326 2141327 -2141328 -2141329 2141330 -2141331 -2141332
v 2141333 -2141334 -2141335 2141336 -2141337 -2141338 2141339 -2141340
v -2141341 2141342 -2141343 2141344 2141345 -2141346 -2141347 2141348 -2141349
v -2141350 2141351 -2141352 2141353 -2141354 -2141355 2141356 -2141357
v -2141358 2141359 -2141360 -2141361 2141362 -2141363 2141364 -2141365
v -2141366 2141367 -2141368 -2141369 2141370 -2141371 -2141372 2141373
v -2141374 2141375 -2141376 -2141377 2141378 -2141379 -2141380 2141381
v -2141382 -2141383 2141384 -2141385 2141386 -2141387 2141388 2141389 -2141390
v -2141391 2141392 -2141393 -2141394 2141395 -2141396 2141397 -2141398 2141399
v 2141400 -2141401 -2141402 2141403 -2141404 -2141405 2141406 -2141407 2141408
v -2141409 -2141410 2141411 -2141412 -2141413 2141414 -2141415 -2141416
v 2141417 -2141418 2141419 -2141420 2141421 2141422 -2141423 -2141424 2141425
v -2141426 -2141427 2141428 -2141429 2141430 -2141431 -2141432 2141433
v -2141434 -2141435 2141436 -2141437 -2141438 2141439 -2141440 2141441
v -2141442 -2141443 2141444 -2141445 -2141446 2141447 -2141448 -2141449
v 2141450 -2141451 2141452 -2141453 -2141454 2141455 -2141456 -2141457 2141458
v -2141459 -2141460 2141461 -2141462 2141463 -2141464 2141465 2141466 -2141467
v -2141468 2141469 -2141470 -2141471 2141472 -2141473 2141474 -2141475
v -2141476 2141477 -2141478 -2141479 2141480 -2141481 -2141482 2141483
v -2141484 2141485 -2141486 2141487 2141488 -2141489 -2141490 2141491 -2141492
v -2141493 2141494 -2141495 2141496 -2141497 2141498 2141499 -2141500 -2141501
v 2141502 -2141503 -2141504 2141505 -2141506 2141507 -2141508 -2141509 2141510
v -2141511 -2141512 2141513 -2141514 -2141515 2141516 -2141517 2141518
v -2141519 2141520 -2141521 -2141522 2141523 -2141524 2141525 -2141526
v -2141527 -2141528 -2141529 2141530 -2141531 -2141532 2141533 -2141534
v -2141535 2141536 -2141537 -2141538 2141539 -2141540 -2141541 2141542
v -2141543 -2141544 2141545 -2141546 -2141547 2141548 -2141549 -2141550
v 2141551 -2141552 -2141553 2141554 -2141555 -2141556 2141557 -2141558
v -2141559 2141560 -2141561 -2141562 2141563 -2141564 -2141565 2141566
v -2141567 -2141568 2141569 -2141570 -2141571 2141572 -2141573 -2141574
v 2141575 -2141576 -2141577 2141578 -2141579 -2141580 2141581 -2141582
v -2141583 2141584 -2141585 -2141586 2141587 -2141588 -2141589 2141590
v -2141591 -2141592 2141593 -2141594 -2141595 2141596 -2141597 -2141598
v 2141599 -2141600 -2141601 2141602 -2141603 -2141604 2141605 -2141606
v -2141607 2141608 -2141609 -2141610 2141611 -2141612 -2141613 2141614
v -2141615 -2141616 2141617 -2141618 -2141619 2141620 -2141621 -2141622
v -2141623 -2141624 2141625 -2141626 -2141627 -2141628 -2141629 2141630
v -2141631 2141632 -2141633 -2141634 -2141635 2141636 -2141637 2141638
v -2141639 -2141640 2141641 -2141642 -2141643 -2141644 -2141645 2141646
v -2141647 -2141648 -2141649 -2141650 2141651 -2141652 2141653 -2141654 0
c 
c --- [ run-time profiling ] -------------------------------------------------
c 
c process time taken by individual solving procedures
c (percentage relative to process time for solving)
c 
c       477.80  100.00% search
c       293.52   61.43% unstable
c       176.41   36.92% stable
c         7.59    1.59% walk
c         1.10    0.23% parse
c         0.29    0.06% lucky
c         0.00    0.00% simplify
c   =================================
c       477.80   99.75% solve
c 
c last line shows process time for solving
c (percentage relative to total process time)
c 
c --- [ statistics ] ---------------------------------------------------------
c 
c chronological:             54555        45.30 %  of conflicts
c conflicts:                120434       252.06    per second
c decisions:               1301278      2723.48    per second
c fixed:                    230440        10.76 %  of all variables
c learned:                  111754        92.79 %  per conflict
c learned_lits:           10651591       100.00 %  learned literals
c minimized:                     0         0.00 %  learned literals
c shrunken:                 989872         9.29 %  learned literals
c minishrunken:            2053159        19.28 %  learned literals
c otfs:                        716         0.59 %  of conflict
c propagations:         4401302579         9.21 M  per second
c rephased:                     15      8028.93    interval
c restarts:                  10409        11.57    interval
c stabilizing:                   3        34.88 %  of conflicts
c subsumed:                   3361         0.05 %  of all clauses
c strengthened:                709         0.01 %  of all clauses
c walked:                        4     30108.50    interval
c 
c seconds are measured in process time for solving
c 
c --- [ resources ] ----------------------------------------------------------
c 
c total process time since initialization:       479.00    seconds
c total real time since initialization:          480.81    seconds
c maximum resident set size of process:         1436.40    MB
c 
c --- [ shutting down ] ------------------------------------------------------
c 
c exit 10
